p cnf 7230 13
-3400 3856 -3861 0
3400 -3857 0
-1556 -3412 3855 0
-3857 3861 0
-1558 -3404 -3414 3861 0
1558 -3859 0
3404 -3859 0
-3856 3857 0
3858 -3861 0
-3858 3859 0
3414 -3859 0
3854 -3855 0
-3854 3855 0
